p icnf
i 7 6 0
i 3 -13 0
i -3 7 12 0
i -4 -10 0
i -7 14 0
i 5 10 0
i -9 -11 0
i -5 -2 0
i -6 9 -11 0
i -1 0
i -3 -12 0
i 13 -8 0
i 4 11 0
i 2 8 0
q 0
s SATISFIABLE
m -1 -2 3 4 5 6 7 8 -9 -10 -11 -12 13 14 0
